db/inputs/122822880830064181361172422793417519733.smt2
(set-logic QF_FP)
(declare-const x0 (_ FloatingPoint 8 24))
(declare-const x1 (_ FloatingPoint 8 24))
(declare-const x2 (_ FloatingPoint 8 24))
(declare-const x3 (_ FloatingPoint 8 24))
(declare-const x4 (_ FloatingPoint 8 24))
(assert (fp.gt (fp.neg (fp.div RNE (fp.div RNE x0 x1) (fp.mul RNE x3 x0))) (fp.add RNE (fp.add RNE (fp.add RNE x3 x4) (fp.neg x1)) (fp.add RNE (fp.div RNE x1 x0) (fp.sub RNE x0 x3)))))
(check-sat)
