db/data/122822880830064181361172422793417519733.z3.out
sat
-------------------
29.921838523
